100
100
99
98
97
96
95
95
94
94
94
90
88
86
86
86
86
85
85
85
85
85
83
83
82
81
81
80
80
79
79
78
77
77
76
76
76
75
75
74
74
74
72
71
69
67
67
66
66
65
65
63
61
61
59
59
57
57
56
56
55
54
53
49
48
46
45
41
39
39
38
38
37
37
36
36
35
32
30
30
30
28
28
28
27
26
26
25
24
23
22
22
17
17
13
11
10
10
6
3
2
1
